NAME : SYNTH-n40
TYPE : CVRP
DIMENSION : 41
EDGE_WEIGHT_TYPE : EUC_2D
CAPACITY : 100
NODE_COORD_SECTION
1 50.0000 50.0000
2 85.8598 69.7368
3 9.4177 97.5622
4 76.1140 78.6064
5 12.8114 45.0386
6 37.0798 92.6765
7 64.3865 82.2762
8 44.3414 22.7239
9 55.4585 6.3817
10 82.7631 63.1664
11 75.8088 35.4526
12 97.0698 89.3121
13 77.8383 19.4639
14 46.6721 4.3804
15 15.4289 68.3049
16 74.4762 96.7510
17 32.5825 37.0460
18 46.9556 18.9471
19 12.9922 47.5705
20 22.6909 66.9814
21 43.7152 83.2678
22 70.0265 31.2367
23 83.2260 80.4764
24 38.7478 28.8328
25 68.2496 13.9752
26 19.9908 0.7362
27 78.6924 66.4851
28 70.5165 78.0729
29 45.8916 56.8741
30 13.9797 11.4530
31 66.8403 47.1096
32 56.5236 76.4999
33 63.4718 55.3579
34 55.9207 30.3950
35 3.0818 43.6717
36 21.4585 40.8529
37 85.3403 23.3939
38 5.8303 28.1384
39 29.3594 66.1917
40 55.7032 78.3898
41 66.4314 40.6387
DEMAND_SECTION
1 0
2 25
3 13
4 9
5 13
6 5
7 7
8 7
9 24
10 23
11 22
12 16
13 22
14 9
15 27
16 17
17 28
18 8
19 17
20 22
21 17
22 16
23 9
24 14
25 10
26 12
27 22
28 20
29 20
30 14
31 28
32 7
33 13
34 7
35 13
36 29
37 14
38 27
39 17
40 22
41 16
DEPOT_SECTION
1
-1
EOF
